<number of tasks>
70

<cycle time>
251

<task times>
1 17
2 66
3 54
4 52
5 6
6 88
7 21
8 128
9 68
10 70
11 85
12 21
13 134
14 135
15 94
16 90
17 50
18 143
19 19
20 54
21 50
22 40
23 73
24 12
25 152
26 42
27 45
28 74
29 26
30 11
31 31
32 50
33 102
34 46
35 35
36 40
37 2
38 1
39 3
40 13
41 16
42 25
43 21
44 43
45 30
46 83
47 89
48 56
49 59
50 43
51 11
52 26
53 44
54 121
55 38
56 68
57 22
58 7
59 16
60 32
61 25
62 27
63 156
64 28
65 15
66 26
67 18
68 72
69 23
70 27

<precedence relations>
1,2
1,41
1,69
1,70
2,3
3,4
3,68
4,6
4,7
5,6
5,24
5,30
6,8
7,8
8,12
9,10
10,11
11,12
12,13
12,14
13,23
14,23
15,16
16,17
16,18
17,19
18,19
19,20
19,22
19,57
20,21
21,23
22,23
23,25
23,31
23,33
24,25
25,26
25,27
25,28
25,29
26,35
27,35
28,35
29,35
30,31
31,32
32,35
33,34
34,35
35,36
35,44
35,48
35,51
35,53
35,56
35,60
35,61
35,62
36,37
37,38
38,39
39,40
40,42
41,42
42,43
43,50
44,45
45,46
46,47
47,50
48,49
49,50
51,52
52,54
53,54
54,55
57,58
58,59
59,60
61,65
62,63
63,64
64,65
64,66
64,67

<setup times forward>
1,2:15
1,5:5
1,9:5
1,10:5
1,11:5
1,18:15
1,19:15
1,20:4
1,21:8
1,22:8
1,30:4
1,41:4
1,57:15
1,58:5
1,59:8
1,69:13
1,70:8
2,3:20
2,5:10
2,9:20
2,10:20
2,11:10
2,15:15
2,16:15
2,17:15
2,20:11
2,21:23
2,22:23
2,24:15
2,30:11
2,41:11
2,58:20
2,59:7
2,69:28
2,70:23
3,5:10
3,11:10
3,15:5
3,16:5
3,17:5
3,18:20
3,19:20
3,20:9
3,21:3
3,22:3
3,24:5
3,30:9
3,41:9
3,57:20
3,59:13
3,68:10
3,69:8
3,70:3
4,5:10
4,6:10
4,7:9
4,11:10
4,15:5
4,16:5
4,17:5
4,18:20
4,19:20
4,20:9
4,21:3
4,22:3
4,24:5
4,30:9
4,41:9
4,57:20
4,59:13
4,68:10
4,69:8
4,70:3
5,1:5
5,2:10
5,3:10
5,4:10
5,7:1
5,9:10
5,10:10
5,15:5
5,16:5
5,17:5
5,18:10
5,19:10
5,20:1
5,21:13
5,22:13
5,24:5
5,30:1
5,41:1
5,57:10
5,58:10
5,59:3
5,69:18
5,70:13
6,7:1
6,8:1
6,9:10
6,10:10
6,15:5
6,16:5
6,17:5
6,18:10
6,19:10
6,20:1
6,21:13
6,22:13
6,24:5
6,30:1
6,41:1
6,57:10
6,58:10
6,59:3
6,69:18
6,70:13
7,5:1
7,6:1
7,9:9
7,10:9
7,11:1
7,15:4
7,16:4
7,17:4
7,18:11
7,19:11
7,21:12
7,22:12
7,24:4
7,57:11
7,58:9
7,59:4
7,68:1
7,69:17
7,70:12
8,9:9
8,10:9
8,11:1
8,15:4
8,16:4
8,17:4
8,18:11
8,19:11
8,21:12
8,22:12
8,24:4
8,57:11
8,58:9
8,59:4
8,68:1
8,69:17
8,70:12
9,1:5
9,2:20
9,5:10
9,6:10
9,7:9
9,8:9
9,15:5
9,16:5
9,17:5
9,18:20
9,19:20
9,20:9
9,21:3
9,22:3
9,24:5
9,30:9
9,41:9
9,57:20
9,59:13
9,68:10
9,69:8
9,70:3
10,1:5
10,2:20
10,5:10
10,6:10
10,7:9
10,8:9
10,11:10
10,15:5
10,16:5
10,17:5
10,18:20
10,19:20
10,20:9
10,21:3
10,22:3
10,24:5
10,30:9
10,41:9
10,57:20
10,59:13
10,68:10
10,69:8
10,70:3
11,1:5
11,2:10
11,3:10
11,4:10
11,7:1
11,8:1
11,12:1
11,15:5
11,16:5
11,17:5
11,18:10
11,19:10
11,20:1
11,21:13
11,22:13
11,24:5
11,30:1
11,41:1
11,57:10
11,58:10
11,59:3
11,69:18
11,70:13
12,13:12
12,14:4
12,15:4
12,16:4
12,17:4
12,18:11
12,19:11
12,21:12
12,22:12
12,24:4
12,57:11
12,58:9
12,59:4
12,68:1
12,69:17
12,70:12
13,14:8
13,15:8
13,16:8
13,17:8
13,18:23
13,19:23
13,20:12
13,23:8
13,24:8
13,30:12
13,41:12
13,57:23
13,58:3
13,59:16
13,68:13
13,69:5
14,13:8
14,18:15
14,19:15
14,20:4
14,21:8
14,22:8
14,30:4
14,41:4
14,57:15
14,58:5
14,59:8
14,68:5
14,69:13
14,70:8
15,2:15
15,3:5
15,4:5
15,5:5
15,6:5
15,7:4
15,8:4
15,9:5
15,10:5
15,11:5
15,12:4
15,13:8
15,30:4
15,41:4
15,68:5
15,69:13
15,70:8
16,2:15
16,3:5
16,4:5
16,5:5
16,6:5
16,7:4
16,8:4
16,9:5
16,10:5
16,11:5
16,12:4
16,13:8
16,18:15
16,30:4
16,41:4
16,68:5
16,69:13
16,70:8
17,2:15
17,3:5
17,4:5
17,5:5
17,6:5
17,7:4
17,8:4
17,9:5
17,10:5
17,11:5
17,12:4
17,13:8
17,18:15
17,19:15
17,30:4
17,41:4
17,68:5
17,69:13
17,70:8
18,1:15
18,3:20
18,4:20
18,5:10
18,6:10
18,7:11
18,8:11
18,9:20
18,10:20
18,11:10
18,12:11
18,13:23
18,14:15
18,17:15
18,24:15
18,30:11
18,41:11
18,68:10
18,69:28
18,70:23
19,1:15
19,3:20
19,4:20
19,5:10
19,6:10
19,7:11
19,8:11
19,9:20
19,10:20
19,11:10
19,12:11
19,13:23
19,14:15
19,20:11
19,22:23
19,24:15
19,30:11
19,41:11
19,68:10
19,69:28
19,70:23
20,1:4
20,2:11
20,3:9
20,4:9
20,5:1
20,6:1
20,9:9
20,10:9
20,11:1
20,13:12
20,14:4
20,21:12
20,22:12
20,24:4
20,57:11
20,58:9
20,59:4
20,68:1
20,69:17
20,70:12
21,1:8
21,2:23
21,3:3
21,4:3
21,5:13
21,6:13
21,7:12
21,8:12
21,9:3
21,10:3
21,11:13
21,12:12
21,14:8
21,23:8
21,24:8
21,30:12
21,41:12
21,57:23
21,58:3
21,59:16
21,68:13
21,69:5
22,1:8
22,2:23
22,3:3
22,4:3
22,5:13
22,6:13
22,7:12
22,8:12
22,9:3
22,10:3
22,11:13
22,12:12
22,14:8
22,20:12
22,23:8
22,24:8
22,30:12
22,41:12
22,57:23
22,58:3
22,59:16
22,68:13
22,69:5
23,25:13
23,30:4
23,33:8
23,41:4
23,57:15
23,58:5
23,59:8
23,68:5
23,69:13
23,70:8
24,2:15
24,3:5
24,4:5
24,6:5
24,7:4
24,8:4
24,9:5
24,10:5
24,11:5
24,12:4
24,13:8
24,18:15
24,19:15
24,20:4
24,21:8
24,22:8
24,25:13
24,30:4
24,32:5
24,33:8
24,34:8
24,41:4
24,57:15
24,58:5
24,59:8
24,68:5
24,69:13
24,70:8
25,26:21
25,27:21
25,29:8
25,30:17
25,31:13
25,32:8
25,33:21
25,34:21
25,41:17
25,57:28
25,58:8
25,59:21
25,68:18
25,70:5
26,28:21
26,29:13
26,30:4
26,31:8
26,32:13
26,35:13
26,41:4
26,57:7
26,58:13
26,68:3
26,69:21
26,70:16
27,28:21
27,29:13
27,30:4
27,31:8
27,32:13
27,35:13
27,41:4
27,57:7
27,58:13
27,68:3
27,69:21
27,70:16
28,26:21
28,27:21
28,29:8
28,30:17
28,31:13
28,32:8
28,33:21
28,34:21
28,35:8
28,41:17
28,57:28
28,58:8
28,59:21
28,68:18
28,70:5
29,26:13
29,27:13
29,28:8
29,30:9
29,31:5
29,33:13
29,34:13
29,41:9
29,57:20
29,59:13
29,68:10
29,69:8
29,70:3
30,1:4
30,2:11
30,3:9
30,4:9
30,6:1
30,9:9
30,10:9
30,11:1
30,13:12
30,14:4
30,15:4
30,16:4
30,17:4
30,18:11
30,19:11
30,21:12
30,22:12
30,23:4
30,24:4
30,25:17
30,26:4
30,27:4
30,28:17
30,29:9
30,31:4
30,33:4
30,34:4
30,57:11
30,58:9
30,59:4
30,68:1
30,69:17
30,70:12
31,25:13
31,26:8
31,27:8
31,28:13
31,29:5
31,32:5
31,33:8
31,34:8
31,41:4
31,57:15
31,58:5
31,59:8
31,68:5
31,69:13
31,70:8
32,24:5
32,25:8
32,26:13
32,27:13
32,28:8
32,33:13
32,34:13
32,41:9
32,57:20
32,59:13
32,68:10
32,69:8
32,70:3
33,24:8
33,25:21
33,28:21
33,29:13
33,30:4
33,31:8
33,32:13
33,41:4
33,57:7
33,58:13
33,68:3
33,69:21
33,70:16
34,24:8
34,25:21
34,28:21
34,29:13
34,30:4
34,31:8
34,32:13
34,35:13
34,41:4
34,57:7
34,58:13
34,68:3
34,69:21
34,70:16
35,41:9
35,48:9
35,51:3
35,53:12
35,56:3
35,57:20
35,59:13
35,60:12
35,61:3
35,68:10
35,69:8
35,70:3
36,37:12
36,41:9
36,46:9
36,47:16
36,48:9
36,49:9
36,51:3
36,52:3
36,53:12
36,54:3
36,55:16
36,56:3
36,57:20
36,59:13
36,60:12
36,61:3
36,63:12
36,64:9
36,65:16
36,66:16
36,67:16
36,68:10
36,69:8
36,70:3
37,41:21
37,44:12
37,45:12
37,46:21
37,47:28
37,48:21
37,49:21
37,51:15
37,52:15
37,54:15
37,55:28
37,56:15
37,57:32
37,58:12
37,59:25
37,61:15
37,62:12
37,64:21
37,65:28
37,66:28
37,67:28
37,68:22
37,69:4
37,70:9
38,41:21
38,44:12
38,45:12
38,46:21
38,47:28
38,48:21
38,49:21
38,51:15
38,52:15
38,54:15
38,55:28
38,56:15
38,57:32
38,58:12
38,59:25
38,61:15
38,62:12
38,64:21
38,65:28
38,66:28
38,67:28
38,68:22
38,69:4
38,70:9
39,41:21
39,44:12
39,45:12
39,46:21
39,47:28
39,48:21
39,49:21
39,51:15
39,52:15
39,54:15
39,55:28
39,56:15
39,57:32
39,58:12
39,59:25
39,61:15
39,62:12
39,64:21
39,65:28
39,66:28
39,67:28
39,68:22
39,69:4
39,70:9
40,41:21
40,42:21
40,44:12
40,45:12
40,46:21
40,47:28
40,48:21
40,49:21
40,51:15
40,52:15
40,54:15
40,55:28
40,56:15
40,57:32
40,58:12
40,59:25
40,61:15
40,62:12
40,64:21
40,65:28
40,66:28
40,67:28
40,68:22
40,69:4
40,70:9
41,2:11
41,3:9
41,4:9
41,5:1
41,6:1
41,9:9
41,10:9
41,11:1
41,13:12
41,14:4
41,15:4
41,16:4
41,17:4
41,18:11
41,19:11
41,21:12
41,22:12
41,23:4
41,24:4
41,25:17
41,26:4
41,27:4
41,28:17
41,29:9
41,31:4
41,32:9
41,33:4
41,34:4
41,35:9
41,36:9
41,37:21
41,38:21
41,39:21
41,40:21
41,44:9
41,45:9
41,47:7
41,51:6
41,52:6
41,53:21
41,54:6
41,55:7
41,56:6
41,57:11
41,58:9
41,59:4
41,60:21
41,61:6
41,62:9
41,63:21
41,65:7
41,66:7
41,67:7
41,68:1
41,69:17
41,70:12
42,43:7
42,44:9
42,45:9
42,47:7
42,51:6
42,52:6
42,53:21
42,54:6
42,55:7
42,56:6
42,57:11
42,58:9
42,59:4
42,60:21
42,61:6
42,62:9
42,63:21
42,65:7
42,66:7
42,67:7
42,68:1
42,69:17
42,70:12
43,44:16
43,45:16
43,46:7
43,48:7
43,49:7
43,51:13
43,52:13
43,53:28
43,54:13
43,56:13
43,57:4
43,58:16
43,59:3
43,60:28
43,61:13
43,62:16
43,63:28
43,64:7
43,68:6
43,69:24
43,70:19
44,37:12
44,38:12
44,39:12
44,40:12
44,41:9
44,42:9
44,43:16
44,48:9
44,49:9
44,51:3
44,52:3
44,53:12
44,54:3
44,55:16
44,56:3
44,57:20
44,59:13
44,60:12
44,61:3
44,63:12
44,64:9
44,65:16
44,66:16
44,67:16
44,68:10
44,69:8
44,70:3
45,37:12
45,38:12
45,39:12
45,40:12
45,41:9
45,42:9
45,43:16
45,46:9
45,48:9
45,49:9
45,51:3
45,52:3
45,53:12
45,54:3
45,55:16
45,56:3
45,57:20
45,59:13
45,60:12
45,61:3
45,63:12
45,64:9
45,65:16
45,66:16
45,67:16
45,68:10
45,69:8
45,70:3
46,36:9
46,37:21
46,38:21
46,39:21
46,40:21
46,43:7
46,47:7
46,51:6
46,52:6
46,53:21
46,54:6
46,55:7
46,56:6
46,57:11
46,58:9
46,59:4
46,60:21
46,61:6
46,62:9
46,63:21
46,65:7
46,66:7
46,67:7
46,68:1
46,69:17
46,70:12
47,36:16
47,37:28
47,38:28
47,39:28
47,40:28
47,41:7
47,42:7
47,48:7
47,49:7
47,51:13
47,52:13
47,53:28
47,54:13
47,56:13
47,57:4
47,58:16
47,59:3
47,60:28
47,61:13
47,62:16
47,63:28
47,64:7
47,68:6
47,69:24
47,70:19
48,36:9
48,37:21
48,38:21
48,39:21
48,40:21
48,43:7
48,44:9
48,45:9
48,47:7
48,51:6
48,52:6
48,53:21
48,54:6
48,55:7
48,56:6
48,57:11
48,58:9
48,59:4
48,60:21
48,61:6
48,62:9
48,63:21
48,65:7
48,66:7
48,67:7
48,68:1
48,69:17
48,70:12
49,36:9
49,37:21
49,38:21
49,39:21
49,40:21
49,43:7
49,44:9
49,45:9
49,47:7
49,50:7
49,51:6
49,52:6
49,53:21
49,54:6
49,55:7
49,56:6
49,57:11
49,58:9
49,59:4
49,60:21
49,61:6
49,62:9
49,63:21
49,65:7
49,66:7
49,67:7
49,68:1
49,69:17
49,70:12
50,51:13
50,52:13
50,53:28
50,54:13
50,56:13
50,57:4
50,58:16
50,59:3
50,60:28
50,61:13
50,62:16
50,63:28
50,64:7
50,68:6
50,69:24
50,70:19
51,36:3
51,37:15
51,38:15
51,39:15
51,40:15
51,41:6
51,42:6
51,43:13
51,44:3
51,45:3
51,46:6
51,47:13
51,48:6
51,49:6
51,50:13
51,53:15
51,57:17
51,58:3
51,59:10
51,60:15
51,62:3
51,63:15
51,64:6
51,65:13
51,66:13
51,67:13
51,68:7
51,69:11
51,70:6
52,36:3
52,37:15
52,38:15
52,39:15
52,40:15
52,41:6
52,42:6
52,43:13
52,44:3
52,45:3
52,46:6
52,47:13
52,48:6
52,49:6
52,50:13
52,53:15
52,57:17
52,58:3
52,59:10
52,60:15
52,62:3
52,63:15
52,64:6
52,65:13
52,66:13
52,67:13
52,68:7
52,69:11
52,70:6
53,36:12
53,41:21
53,42:21
53,43:28
53,44:12
53,45:12
53,46:21
53,47:28
53,48:21
53,49:21
53,50:28
53,51:15
53,52:15
53,54:15
53,56:15
53,57:32
53,58:12
53,59:25
53,61:15
53,62:12
53,64:21
53,65:28
53,66:28
53,67:28
53,68:22
53,69:4
53,70:9
54,36:3
54,37:15
54,38:15
54,39:15
54,40:15
54,41:6
54,42:6
54,43:13
54,44:3
54,45:3
54,46:6
54,47:13
54,48:6
54,49:6
54,50:13
54,55:13
54,57:17
54,58:3
54,59:10
54,60:15
54,62:3
54,63:15
54,64:6
54,65:13
54,66:13
54,67:13
54,68:7
54,69:11
54,70:6
55,36:16
55,37:28
55,38:28
55,39:28
55,40:28
55,41:7
55,42:7
55,44:16
55,45:16
55,46:7
55,48:7
55,49:7
55,56:13
55,57:4
55,58:16
55,59:3
55,60:28
55,61:13
55,62:16
55,63:28
55,64:7
55,68:6
55,69:24
55,70:19
56,36:3
56,37:15
56,38:15
56,39:15
56,40:15
56,41:6
56,42:6
56,43:13
56,44:3
56,45:3
56,46:6
56,47:13
56,48:6
56,49:6
56,50:13
56,53:15
56,55:13
56,57:17
56,58:3
56,59:10
56,60:15
56,62:3
56,63:15
56,64:6
56,65:13
56,66:13
56,67:13
56,68:7
56,69:11
56,70:6
57,1:15
57,3:20
57,4:20
57,5:10
57,6:10
57,7:11
57,8:11
57,9:20
57,10:20
57,11:10
57,12:11
57,13:23
57,14:15
57,20:11
57,21:23
57,22:23
57,23:15
57,24:15
57,25:28
57,26:7
57,27:7
57,28:28
57,29:20
57,30:11
57,31:15
57,32:20
57,33:7
57,34:7
57,35:20
57,36:20
57,37:32
57,38:32
57,39:32
57,40:32
57,41:11
57,42:11
57,43:4
57,44:20
57,45:20
57,46:11
57,47:4
57,48:11
57,49:11
57,50:4
57,51:17
57,52:17
57,53:32
57,54:17
57,55:4
57,56:17
57,58:20
57,61:17
57,62:20
57,63:32
57,64:11
57,65:4
57,66:4
57,67:4
57,68:10
57,69:28
57,70:23
58,1:5
58,2:20
58,5:10
58,6:10
58,7:9
58,8:9
58,11:10
58,12:9
58,13:3
58,14:5
58,20:9
58,21:3
58,22:3
58,23:5
58,24:5
58,25:8
58,26:13
58,27:13
58,28:8
58,30:9
58,31:5
58,33:13
58,34:13
58,37:12
58,38:12
58,39:12
58,40:12
58,41:9
58,42:9
58,43:16
58,46:9
58,47:16
58,48:9
58,49:9
58,50:16
58,51:3
58,52:3
58,53:12
58,54:3
58,55:16
58,56:3
58,59:13
58,61:3
58,63:12
58,64:9
58,65:16
58,66:16
58,67:16
58,68:10
58,69:8
58,70:3
59,1:8
59,2:7
59,3:13
59,4:13
59,5:3
59,6:3
59,7:4
59,8:4
59,9:13
59,10:13
59,11:3
59,12:4
59,13:16
59,14:8
59,20:4
59,21:16
59,22:16
59,23:8
59,24:8
59,25:21
59,28:21
59,29:13
59,30:4
59,31:8
59,32:13
59,35:13
59,36:13
59,37:25
59,38:25
59,39:25
59,40:25
59,41:4
59,42:4
59,43:3
59,44:13
59,45:13
59,46:4
59,47:3
59,48:4
59,49:4
59,50:3
59,51:10
59,52:10
59,53:25
59,54:10
59,55:3
59,56:10
59,60:25
59,61:10
59,62:13
59,63:25
59,64:4
59,65:3
59,66:3
59,67:3
59,68:3
59,69:21
59,70:16
60,36:12
60,41:21
60,42:21
60,43:28
60,44:12
60,45:12
60,46:21
60,47:28
60,48:21
60,49:21
60,50:28
60,51:15
60,52:15
60,54:15
60,55:28
60,56:15
60,61:15
60,62:12
60,64:21
60,65:28
60,66:28
60,67:28
60,68:22
60,69:4
60,70:9
61,36:3
61,37:15
61,38:15
61,39:15
61,40:15
61,41:6
61,42:6
61,43:13
61,44:3
61,45:3
61,46:6
61,47:13
61,48:6
61,49:6
61,50:13
61,53:15
61,55:13
61,57:17
61,58:3
61,59:10
61,60:15
61,62:3
61,63:15
61,64:6
61,65:13
61,66:13
61,67:13
61,68:7
61,69:11
61,70:6
62,37:12
62,38:12
62,39:12
62,40:12
62,41:9
62,42:9
62,43:16
62,46:9
62,47:16
62,48:9
62,49:9
62,50:16
62,51:3
62,52:3
62,53:12
62,54:3
62,55:16
62,56:3
62,57:20
62,59:13
62,60:12
62,61:3
62,63:12
62,68:10
62,69:8
62,70:3
63,36:12
63,41:21
63,42:21
63,43:28
63,44:12
63,45:12
63,46:21
63,47:28
63,48:21
63,49:21
63,50:28
63,51:15
63,52:15
63,54:15
63,55:28
63,56:15
63,57:32
63,58:12
63,59:25
63,61:15
63,64:21
63,68:22
63,69:4
63,70:9
64,36:9
64,37:21
64,38:21
64,39:21
64,40:21
64,43:7
64,44:9
64,45:9
64,47:7
64,50:7
64,51:6
64,52:6
64,53:21
64,54:6
64,55:7
64,56:6
64,57:11
64,58:9
64,59:4
64,60:21
64,61:6
64,65:7
64,66:7
64,67:7
64,68:1
64,69:17
64,70:12
65,36:16
65,37:28
65,38:28
65,39:28
65,40:28
65,41:7
65,42:7
65,44:16
65,45:16
65,46:7
65,48:7
65,49:7
65,51:13
65,52:13
65,53:28
65,54:13
65,56:13
65,57:4
65,58:16
65,59:3
65,60:28
65,68:6
65,69:24
65,70:19
66,36:16
66,37:28
66,38:28
66,39:28
66,40:28
66,41:7
66,42:7
66,44:16
66,45:16
66,46:7
66,48:7
66,49:7
66,51:13
66,52:13
66,53:28
66,54:13
66,56:13
66,57:4
66,58:16
66,59:3
66,60:28
66,61:13
66,68:6
66,69:24
66,70:19
67,36:16
67,37:28
67,38:28
67,39:28
67,40:28
67,41:7
67,42:7
67,44:16
67,45:16
67,46:7
67,48:7
67,49:7
67,51:13
67,52:13
67,53:28
67,54:13
67,56:13
67,57:4
67,58:16
67,59:3
67,60:28
67,61:13
67,68:6
67,69:24
67,70:19
68,4:10
68,7:1
68,8:1
68,9:10
68,10:10
68,12:1
68,13:13
68,14:5
68,15:5
68,16:5
68,17:5
68,18:10
68,19:10
68,20:1
68,21:13
68,22:13
68,23:5
68,24:5
68,25:18
68,26:3
68,27:3
68,28:18
68,29:10
68,30:1
68,31:5
68,32:10
68,33:3
68,34:3
68,35:10
68,36:10
68,37:22
68,38:22
68,39:22
68,40:22
68,41:1
68,42:1
68,43:6
68,44:10
68,45:10
68,46:1
68,47:6
68,48:1
68,49:1
68,50:6
68,51:7
68,52:7
68,53:22
68,54:7
68,55:6
68,56:7
68,57:10
68,58:10
68,59:3
68,60:22
68,61:7
68,62:10
68,63:22
68,64:1
68,65:6
68,66:6
68,67:6
68,69:18
68,70:13
69,2:28
69,3:8
69,4:8
69,5:18
69,6:18
69,7:17
69,8:17
69,9:8
69,10:8
69,11:18
69,12:17
69,13:5
69,14:13
69,15:13
69,16:13
69,17:13
69,18:28
69,19:28
69,20:17
69,21:5
69,22:5
69,23:13
69,24:13
69,26:21
69,27:21
69,29:8
69,30:17
69,31:13
69,32:8
69,33:21
69,34:21
69,35:8
69,36:8
69,37:4
69,38:4
69,39:4
69,40:4
69,41:17
69,42:17
69,43:24
69,44:8
69,45:8
69,46:17
69,47:24
69,48:17
69,49:17
69,50:24
69,51:11
69,52:11
69,53:4
69,54:11
69,55:24
69,56:11
69,57:28
69,58:8
69,59:21
69,60:4
69,61:11
69,62:8
69,63:4
69,64:17
69,65:24
69,66:24
69,67:24
69,68:18
69,70:5
70,2:23
70,3:3
70,4:3
70,5:13
70,6:13
70,7:12
70,8:12
70,9:3
70,10:3
70,11:13
70,12:12
70,14:8
70,15:8
70,16:8
70,17:8
70,18:23
70,19:23
70,20:12
70,23:8
70,24:8
70,25:5
70,26:16
70,27:16
70,28:5
70,29:3
70,30:12
70,31:8
70,32:3
70,33:16
70,34:16
70,35:3
70,36:3
70,37:9
70,38:9
70,39:9
70,40:9
70,41:12
70,42:12
70,43:19
70,44:3
70,45:3
70,46:12
70,47:19
70,48:12
70,49:12
70,50:19
70,51:6
70,52:6
70,53:9
70,54:6
70,55:19
70,56:6
70,57:23
70,58:3
70,59:16
70,60:9
70,61:6
70,62:3
70,63:9
70,64:12
70,65:19
70,66:19
70,67:19
70,68:13
70,69:5

<setup times backward>
1,9:5
1,10:5
1,21:8
1,22:8
1,58:5
2,1:15
2,5:10
2,9:20
2,10:20
2,11:10
2,15:15
2,16:15
2,17:15
2,20:11
2,21:23
2,22:23
2,24:15
2,30:11
2,41:11
2,58:20
2,59:7
2,69:28
2,70:23
3,21:3
3,22:3
3,69:8
3,70:3
4,21:3
4,22:3
4,69:8
4,70:3
5,1:5
5,3:10
5,4:10
5,7:1
5,9:10
5,10:10
5,15:5
5,16:5
5,17:5
5,20:1
5,21:13
5,22:13
5,41:1
5,58:10
5,69:18
5,70:13
6,1:5
6,3:10
6,4:10
6,7:1
6,9:10
6,10:10
6,15:5
6,16:5
6,17:5
6,20:1
6,21:13
6,22:13
6,24:5
6,30:1
6,41:1
6,58:10
6,69:18
6,70:13
7,1:4
7,3:9
7,4:9
7,9:9
7,10:9
7,15:4
7,16:4
7,17:4
7,21:12
7,22:12
7,24:4
7,58:9
7,69:17
7,70:12
8,1:4
8,3:9
8,4:9
8,9:9
8,10:9
8,15:4
8,16:4
8,17:4
8,21:12
8,22:12
8,24:4
8,58:9
8,69:17
8,70:12
9,21:3
9,22:3
9,69:8
9,70:3
10,21:3
10,22:3
10,69:8
10,70:3
11,1:5
11,3:10
11,4:10
11,7:1
11,8:1
11,9:10
11,10:10
11,15:5
11,16:5
11,17:5
11,20:1
11,21:13
11,22:13
11,24:5
11,30:1
11,41:1
11,58:10
11,69:18
11,70:13
12,1:4
12,3:9
12,4:9
12,9:9
12,10:9
12,15:4
12,16:4
12,17:4
12,21:12
12,22:12
12,24:4
12,58:9
12,69:17
12,70:12
13,69:5
14,3:5
14,4:5
14,9:5
14,10:5
14,13:8
14,21:8
14,22:8
14,58:5
14,69:13
14,70:8
15,3:5
15,4:5
15,9:5
15,10:5
15,13:8
15,69:13
15,70:8
16,3:5
16,4:5
16,9:5
16,10:5
16,13:8
16,69:13
16,70:8
17,3:5
17,4:5
17,9:5
17,10:5
17,13:8
17,69:13
17,70:8
18,1:15
18,3:20
18,4:20
18,5:10
18,6:10
18,7:11
18,8:11
18,9:20
18,10:20
18,11:10
18,12:11
18,13:23
18,14:15
18,15:15
18,16:15
18,17:15
18,24:15
18,30:11
18,41:11
18,68:10
18,69:28
18,70:23
19,1:15
19,3:20
19,4:20
19,5:10
19,6:10
19,7:11
19,8:11
19,9:20
19,10:20
19,11:10
19,12:11
19,13:23
19,14:15
19,15:15
19,16:15
19,17:15
19,24:15
19,30:11
19,41:11
19,68:10
19,69:28
19,70:23
20,1:4
20,3:9
20,4:9
20,9:9
20,10:9
20,13:12
20,14:4
20,15:4
20,16:4
20,17:4
20,22:12
20,24:4
20,58:9
20,69:17
20,70:12
21,69:5
22,69:5
23,3:5
23,4:5
23,9:5
23,10:5
23,13:8
23,21:8
23,22:8
23,58:5
23,69:13
23,70:8
24,3:5
24,4:5
24,9:5
24,10:5
24,13:8
24,21:8
24,22:8
24,32:5
24,58:5
24,69:13
24,70:8
26,1:8
26,3:13
26,4:13
26,5:3
26,6:3
26,7:4
26,8:4
26,9:13
26,10:13
26,11:3
26,12:4
26,13:16
26,14:8
26,15:8
26,16:8
26,17:8
26,20:4
26,21:16
26,22:16
26,23:8
26,24:8
26,25:21
26,28:21
26,29:13
26,30:4
26,31:8
26,32:13
26,41:4
26,58:13
26,68:3
26,69:21
26,70:16
27,1:8
27,3:13
27,4:13
27,5:3
27,6:3
27,7:4
27,8:4
27,9:13
27,10:13
27,11:3
27,12:4
27,13:16
27,14:8
27,15:8
27,16:8
27,17:8
27,20:4
27,21:16
27,22:16
27,23:8
27,24:8
27,25:21
27,28:21
27,29:13
27,30:4
27,31:8
27,32:13
27,41:4
27,58:13
27,68:3
27,69:21
27,70:16
29,13:3
29,21:3
29,22:3
29,25:8
29,28:8
29,69:8
29,70:3
30,1:4
30,3:9
30,4:9
30,9:9
30,10:9
30,13:12
30,14:4
30,15:4
30,16:4
30,17:4
30,21:12
30,22:12
30,23:4
30,24:4
30,25:17
30,28:17
30,29:9
30,58:9
30,69:17
30,70:12
31,3:5
31,4:5
31,9:5
31,10:5
31,13:8
31,21:8
31,22:8
31,25:13
31,28:13
31,29:5
31,58:5
31,69:13
31,70:8
32,13:3
32,21:3
32,22:3
32,25:8
32,28:8
32,69:8
32,70:3
33,1:8
33,3:13
33,4:13
33,5:3
33,6:3
33,7:4
33,8:4
33,9:13
33,10:13
33,11:3
33,12:4
33,13:16
33,14:8
33,15:8
33,16:8
33,17:8
33,20:4
33,21:16
33,22:16
33,23:8
33,24:8
33,25:21
33,28:21
33,29:13
33,30:4
33,31:8
33,32:13
33,41:4
33,58:13
33,68:3
33,69:21
33,70:16
34,1:8
34,3:13
34,4:13
34,5:3
34,6:3
34,7:4
34,8:4
34,9:13
34,10:13
34,11:3
34,12:4
34,13:16
34,14:8
34,15:8
34,16:8
34,17:8
34,20:4
34,21:16
34,22:16
34,23:8
34,24:8
34,25:21
34,28:21
34,29:13
34,30:4
34,31:8
34,32:13
34,41:4
34,58:13
34,68:3
34,69:21
34,70:16
35,13:3
35,21:3
35,22:3
35,25:8
35,28:8
35,69:8
35,70:3
36,13:3
36,21:3
36,22:3
36,25:8
36,28:8
36,53:12
36,60:12
36,63:12
36,69:8
36,70:3
41,1:4
41,3:9
41,4:9
41,9:9
41,10:9
41,13:12
41,14:4
41,15:4
41,16:4
41,17:4
41,21:12
41,22:12
41,23:4
41,24:4
41,25:17
41,28:17
41,29:9
41,31:4
41,32:9
41,35:9
41,36:9
41,37:21
41,38:21
41,39:21
41,40:21
41,44:9
41,45:9
41,51:6
41,52:6
41,53:21
41,54:6
41,56:6
41,58:9
41,60:21
41,61:6
41,62:9
41,63:21
41,69:17
41,70:12
42,1:4
42,3:9
42,4:9
42,9:9
42,10:9
42,13:12
42,14:4
42,15:4
42,16:4
42,17:4
42,21:12
42,22:12
42,23:4
42,24:4
42,25:17
42,28:17
42,29:9
42,31:4
42,32:9
42,35:9
42,36:9
42,37:21
42,38:21
42,39:21
42,40:21
42,44:9
42,45:9
42,51:6
42,52:6
42,53:21
42,54:6
42,56:6
42,58:9
42,60:21
42,61:6
42,62:9
42,63:21
42,69:17
42,70:12
43,1:11
43,3:16
43,4:16
43,5:6
43,6:6
43,7:7
43,8:7
43,9:16
43,10:16
43,11:6
43,12:7
43,13:19
43,14:11
43,15:11
43,16:11
43,17:11
43,20:7
43,21:19
43,22:19
43,23:11
43,24:11
43,25:24
43,26:3
43,27:3
43,28:24
43,29:16
43,30:7
43,31:11
43,32:16
43,33:3
43,34:3
43,35:16
43,36:16
43,37:28
43,38:28
43,39:28
43,40:28
43,41:7
43,42:7
43,44:16
43,45:16
43,46:7
43,48:7
43,49:7
43,51:13
43,52:13
43,53:28
43,54:13
43,56:13
43,58:16
43,59:3
43,60:28
43,61:13
43,62:16
43,63:28
43,64:7
43,68:6
43,69:24
43,70:19
44,13:3
44,21:3
44,22:3
44,25:8
44,28:8
44,37:12
44,38:12
44,39:12
44,40:12
44,53:12
44,60:12
44,63:12
44,69:8
44,70:3
45,13:3
45,21:3
45,22:3
45,25:8
45,28:8
45,37:12
45,38:12
45,39:12
45,40:12
45,53:12
45,60:12
45,63:12
45,69:8
45,70:3
46,1:4
46,3:9
46,4:9
46,9:9
46,10:9
46,13:12
46,14:4
46,15:4
46,16:4
46,17:4
46,21:12
46,22:12
46,23:4
46,24:4
46,25:17
46,28:17
46,29:9
46,31:4
46,32:9
46,35:9
46,36:9
46,37:21
46,38:21
46,39:21
46,40:21
46,44:9
46,45:9
46,51:6
46,52:6
46,53:21
46,54:6
46,56:6
46,58:9
46,60:21
46,61:6
46,62:9
46,63:21
46,69:17
46,70:12
47,1:11
47,3:16
47,4:16
47,5:6
47,6:6
47,7:7
47,8:7
47,9:16
47,10:16
47,11:6
47,12:7
47,13:19
47,14:11
47,15:11
47,16:11
47,17:11
47,20:7
47,21:19
47,22:19
47,23:11
47,24:11
47,25:24
47,26:3
47,27:3
47,28:24
47,29:16
47,30:7
47,31:11
47,32:16
47,33:3
47,34:3
47,35:16
47,36:16
47,37:28
47,38:28
47,39:28
47,40:28
47,41:7
47,42:7
47,44:16
47,45:16
47,46:7
47,48:7
47,49:7
47,51:13
47,52:13
47,53:28
47,54:13
47,56:13
47,58:16
47,59:3
47,60:28
47,61:13
47,62:16
47,63:28
47,64:7
47,68:6
47,69:24
47,70:19
48,1:4
48,3:9
48,4:9
48,9:9
48,10:9
48,13:12
48,14:4
48,15:4
48,16:4
48,17:4
48,21:12
48,22:12
48,23:4
48,24:4
48,25:17
48,28:17
48,29:9
48,31:4
48,32:9
48,35:9
48,36:9
48,37:21
48,38:21
48,39:21
48,40:21
48,44:9
48,45:9
48,51:6
48,52:6
48,53:21
48,54:6
48,56:6
48,58:9
48,60:21
48,61:6
48,62:9
48,63:21
48,69:17
48,70:12
49,1:4
49,3:9
49,4:9
49,9:9
49,10:9
49,13:12
49,14:4
49,15:4
49,16:4
49,17:4
49,21:12
49,22:12
49,23:4
49,24:4
49,25:17
49,28:17
49,29:9
49,31:4
49,32:9
49,35:9
49,36:9
49,37:21
49,38:21
49,39:21
49,40:21
49,44:9
49,45:9
49,51:6
49,52:6
49,53:21
49,54:6
49,56:6
49,58:9
49,60:21
49,61:6
49,62:9
49,63:21
49,69:17
49,70:12
50,1:11
50,3:16
50,4:16
50,5:6
50,6:6
50,7:7
50,8:7
50,9:16
50,10:16
50,11:6
50,12:7
50,13:19
50,14:11
50,15:11
50,16:11
50,17:11
50,20:7
50,21:19
50,22:19
50,23:11
50,24:11
50,25:24
50,26:3
50,27:3
50,28:24
50,29:16
50,30:7
50,31:11
50,32:16
50,33:3
50,34:3
50,35:16
50,36:16
50,37:28
50,38:28
50,39:28
50,40:28
50,41:7
50,42:7
50,44:16
50,45:16
50,46:7
50,48:7
50,49:7
50,51:13
50,52:13
50,53:28
50,54:13
50,56:13
50,58:16
50,59:3
50,60:28
50,61:13
50,62:16
50,63:28
50,64:7
50,68:6
50,69:24
50,70:19
51,3:3
51,4:3
51,9:3
51,10:3
51,13:6
51,21:6
51,22:6
51,25:11
51,28:11
51,29:3
51,32:3
51,35:3
51,36:3
51,37:15
51,38:15
51,39:15
51,40:15
51,44:3
51,45:3
51,53:15
51,58:3
51,60:15
51,62:3
51,63:15
51,69:11
51,70:6
52,3:3
52,4:3
52,9:3
52,10:3
52,13:6
52,21:6
52,22:6
52,25:11
52,28:11
52,29:3
52,32:3
52,35:3
52,36:3
52,37:15
52,38:15
52,39:15
52,40:15
52,44:3
52,45:3
52,53:15
52,58:3
52,60:15
52,62:3
52,63:15
52,69:11
52,70:6
54,3:3
54,4:3
54,9:3
54,10:3
54,13:6
54,21:6
54,22:6
54,25:11
54,28:11
54,29:3
54,32:3
54,35:3
54,36:3
54,37:15
54,38:15
54,39:15
54,40:15
54,44:3
54,45:3
54,53:15
54,58:3
54,60:15
54,62:3
54,63:15
54,69:11
54,70:6
55,1:11
55,3:16
55,4:16
55,5:6
55,6:6
55,7:7
55,8:7
55,9:16
55,10:16
55,11:6
55,12:7
55,13:19
55,14:11
55,15:11
55,16:11
55,17:11
55,20:7
55,21:19
55,22:19
55,23:11
55,24:11
55,25:24
55,26:3
55,27:3
55,28:24
55,29:16
55,30:7
55,31:11
55,32:16
55,33:3
55,34:3
55,35:16
55,36:16
55,37:28
55,38:28
55,39:28
55,40:28
55,41:7
55,42:7
55,44:16
55,45:16
55,46:7
55,48:7
55,49:7
55,51:13
55,52:13
55,53:28
55,54:13
55,56:13
55,58:16
55,59:3
55,60:28
55,61:13
55,62:16
55,63:28
55,64:7
55,68:6
55,69:24
55,70:19
56,3:3
56,4:3
56,9:3
56,10:3
56,13:6
56,21:6
56,22:6
56,25:11
56,28:11
56,29:3
56,32:3
56,35:3
56,36:3
56,37:15
56,38:15
56,39:15
56,40:15
56,44:3
56,45:3
56,53:15
56,58:3
56,60:15
56,62:3
56,63:15
56,69:11
56,70:6
57,1:15
57,3:20
57,4:20
57,5:10
57,6:10
57,7:11
57,8:11
57,9:20
57,10:20
57,11:10
57,12:11
57,13:23
57,14:15
57,15:15
57,16:15
57,17:15
57,20:11
57,21:23
57,22:23
57,23:15
57,24:15
57,25:28
57,26:7
57,27:7
57,28:28
57,29:20
57,30:11
57,31:15
57,32:20
57,33:7
57,34:7
57,35:20
57,36:20
57,37:32
57,38:32
57,39:32
57,40:32
57,41:11
57,42:11
57,43:4
57,44:20
57,45:20
57,46:11
57,47:4
57,48:11
57,49:11
57,50:4
57,51:17
57,52:17
57,53:32
57,54:17
57,55:4
57,56:17
57,61:17
57,62:20
57,63:32
57,64:11
57,65:4
57,66:4
57,67:4
57,68:10
57,69:28
57,70:23
58,13:3
58,21:3
58,22:3
58,25:8
58,28:8
58,37:12
58,38:12
58,39:12
58,40:12
58,53:12
58,63:12
58,69:8
58,70:3
59,1:8
59,3:13
59,4:13
59,5:3
59,6:3
59,7:4
59,8:4
59,9:13
59,10:13
59,11:3
59,12:4
59,13:16
59,14:8
59,15:8
59,16:8
59,17:8
59,20:4
59,21:16
59,22:16
59,23:8
59,24:8
59,25:21
59,28:21
59,29:13
59,30:4
59,31:8
59,32:13
59,35:13
59,36:13
59,37:25
59,38:25
59,39:25
59,40:25
59,41:4
59,42:4
59,44:13
59,45:13
59,46:4
59,48:4
59,49:4
59,51:10
59,52:10
59,53:25
59,54:10
59,56:10
59,58:13
59,61:10
59,62:13
59,63:25
59,64:4
59,68:3
59,69:21
59,70:16
61,3:3
61,4:3
61,9:3
61,10:3
61,13:6
61,21:6
61,22:6
61,25:11
61,28:11
61,29:3
61,32:3
61,35:3
61,36:3
61,37:15
61,38:15
61,39:15
61,40:15
61,44:3
61,45:3
61,53:15
61,58:3
61,60:15
61,62:3
61,63:15
61,69:11
61,70:6
62,13:3
62,21:3
62,22:3
62,25:8
62,28:8
62,37:12
62,38:12
62,39:12
62,40:12
62,53:12
62,60:12
62,69:8
62,70:3
64,1:4
64,3:9
64,4:9
64,9:9
64,10:9
64,13:12
64,14:4
64,15:4
64,16:4
64,17:4
64,21:12
64,22:12
64,23:4
64,24:4
64,25:17
64,28:17
64,29:9
64,31:4
64,32:9
64,35:9
64,36:9
64,37:21
64,38:21
64,39:21
64,40:21
64,44:9
64,45:9
64,51:6
64,52:6
64,53:21
64,54:6
64,56:6
64,58:9
64,60:21
64,61:6
64,62:9
64,63:21
64,69:17
64,70:12
65,1:11
65,3:16
65,4:16
65,5:6
65,6:6
65,7:7
65,8:7
65,9:16
65,10:16
65,11:6
65,12:7
65,13:19
65,14:11
65,15:11
65,16:11
65,17:11
65,20:7
65,21:19
65,22:19
65,23:11
65,24:11
65,25:24
65,26:3
65,27:3
65,28:24
65,29:16
65,30:7
65,31:11
65,32:16
65,33:3
65,34:3
65,35:16
65,36:16
65,37:28
65,38:28
65,39:28
65,40:28
65,41:7
65,42:7
65,44:16
65,45:16
65,46:7
65,48:7
65,49:7
65,51:13
65,52:13
65,53:28
65,54:13
65,56:13
65,58:16
65,59:3
65,60:28
65,61:13
65,62:16
65,63:28
65,64:7
65,68:6
65,69:24
65,70:19
66,1:11
66,3:16
66,4:16
66,5:6
66,6:6
66,7:7
66,8:7
66,9:16
66,10:16
66,11:6
66,12:7
66,13:19
66,14:11
66,15:11
66,16:11
66,17:11
66,20:7
66,21:19
66,22:19
66,23:11
66,24:11
66,25:24
66,26:3
66,27:3
66,28:24
66,29:16
66,30:7
66,31:11
66,32:16
66,33:3
66,34:3
66,35:16
66,36:16
66,37:28
66,38:28
66,39:28
66,40:28
66,41:7
66,42:7
66,44:16
66,45:16
66,46:7
66,48:7
66,49:7
66,51:13
66,52:13
66,53:28
66,54:13
66,56:13
66,58:16
66,59:3
66,60:28
66,61:13
66,62:16
66,63:28
66,64:7
66,68:6
66,69:24
66,70:19
67,1:11
67,3:16
67,4:16
67,5:6
67,6:6
67,7:7
67,8:7
67,9:16
67,10:16
67,11:6
67,12:7
67,13:19
67,14:11
67,15:11
67,16:11
67,17:11
67,20:7
67,21:19
67,22:19
67,23:11
67,24:11
67,25:24
67,26:3
67,27:3
67,28:24
67,29:16
67,30:7
67,31:11
67,32:16
67,33:3
67,34:3
67,35:16
67,36:16
67,37:28
67,38:28
67,39:28
67,40:28
67,41:7
67,42:7
67,44:16
67,45:16
67,46:7
67,48:7
67,49:7
67,51:13
67,52:13
67,53:28
67,54:13
67,56:13
67,58:16
67,59:3
67,60:28
67,61:13
67,62:16
67,63:28
67,64:7
67,68:6
67,69:24
67,70:19
68,1:5
68,3:10
68,4:10
68,7:1
68,8:1
68,9:10
68,10:10
68,12:1
68,13:13
68,14:5
68,15:5
68,16:5
68,17:5
68,20:1
68,21:13
68,22:13
68,23:5
68,24:5
68,25:18
68,28:18
68,29:10
68,30:1
68,31:5
68,32:10
68,35:10
68,36:10
68,37:22
68,38:22
68,39:22
68,40:22
68,41:1
68,42:1
68,44:10
68,45:10
68,46:1
68,48:1
68,49:1
68,51:7
68,52:7
68,53:22
68,54:7
68,56:7
68,58:10
68,60:22
68,61:7
68,62:10
68,63:22
68,64:1
68,69:18
68,70:13
69,37:4
69,38:4
69,39:4
69,40:4
69,53:4
69,60:4
69,63:4
70,25:5
70,28:5
70,37:9
70,38:9
70,39:9
70,40:9
70,53:9
70,60:9
70,63:9
70,69:5

<end>

<optimal SALBP-1 value>
14


<rand seed>
467321153

<Lower Bounds>
Lm1=14
Lms1=14
Lm2=6
Lm3=7
Lm4=14
Best=14

<Optimal Stations (Iterations: 10)>
18
